NAME: random-95-31394
TYPE: TSP
COMMENT: size=95 seed=31394
DIMENSION: 192
EDGE_WEIGHT_TYPE: EUC_2D
NODE_COORD_SECTION
+0 958 643
-0 958 643
+1 345 690
-1 364 68
+2 387 425
-2 127 28
+3 559 553
-3 212 219
+4 548 299
-4 668 722
+5 800 266
-5 316 988
+6 732 928
-6 117 269
+7 331 579
-7 252 28
+8 95 168
-8 264 714
+9 659 44
-9 662 31
+10 513 406
-10 353 834
+11 999 723
-11 469 76
+12 469 758
-12 633 223
+13 744 326
-13 326 191
+14 225 117
-14 499 835
+15 668 218
-15 730 751
+16 416 53
-16 253 96
+17 994 797
-17 219 341
+18 584 986
-18 200 456
+19 795 100
-19 268 773
+20 74 91
-20 620 783
+21 419 169
-21 259 45
+22 422 347
-22 32 910
+23 677 397
-23 909 978
+24 512 332
-24 834 856
+25 798 635
-25 822 326
+26 203 990
-26 808 479
+27 470 273
-27 122 337
+28 260 889
-28 638 614
+29 243 893
-29 653 510
+30 608 318
-30 218 270
+31 209 644
-31 254 263
+32 51 732
-32 786 720
+33 115 358
-33 734 190
+34 694 271
-34 576 732
+35 785 296
-35 799 261
+36 461 956
-36 716 628
+37 985 972
-37 119 328
+38 898 349
-38 642 377
+39 100 525
-39 365 127
+40 802 185
-40 688 520
+41 942 407
-41 997 210
+42 189 389
-42 698 48
+43 251 248
-43 726 17
+44 932 719
-44 320 547
+45 806 745
-45 956 910
+46 639 911
-46 679 192
+47 218 305
-47 18 91
+48 934 608
-48 234 779
+49 599 326
-49 102 58
+50 173 115
-50 762 610
+51 220 56
-51 917 952
+52 777 712
-52 947 372
+53 392 617
-53 845 632
+54 713 78
-54 439 697
+55 38 785
-55 415 982
+56 339 163
-56 589 850
+57 256 522
-57 167 813
+58 864 953
-58 184 46
+59 756 616
-59 978 407
+60 489 82
-60 851 383
+61 861 708
-61 542 718
+62 35 611
-62 890 903
+63 486 867
-63 554 748
+64 360 859
-64 593 590
+65 101 998
-65 250 718
+66 731 554
-66 965 952
+67 410 448
-67 774 541
+68 167 67
-68 553 566
+69 276 0
-69 186 974
+70 961 643
-70 42 69
+71 909 216
-71 611 757
+72 336 262
-72 111 529
+73 177 71
-73 667 228
+74 26 746
-74 220 47
+75 403 117
-75 574 609
+76 763 276
-76 258 761
+77 714 970
-77 890 903
+78 775 971
-78 329 161
+79 628 962
-79 240 681
+80 129 171
-80 2 614
+81 224 557
-81 917 57
+82 406 350
-82 544 528
+83 852 660
-83 872 575
+84 180 208
-84 781 881
+85 537 457
-85 572 293
+86 489 399
-86 439 639
+87 325 920
-87 477 902
+88 737 429
-88 886 205
+89 719 419
-89 344 699
+90 471 745
-90 922 647
+91 271 340
-91 928 248
+92 615 117
-92 526 953
+93 868 319
-93 490 975
+94 977 991
-94 908 455
+95 546 102
-95 640 578
PRECEDENCE_SECTION
+0 -0
+1 -1
+2 -2
+3 -3
+4 -4
+5 -5
+6 -6
+7 -7
+8 -8
+9 -9
+10 -10
+11 -11
+12 -12
+13 -13
+14 -14
+15 -15
+16 -16
+17 -17
+18 -18
+19 -19
+20 -20
+21 -21
+22 -22
+23 -23
+24 -24
+25 -25
+26 -26
+27 -27
+28 -28
+29 -29
+30 -30
+31 -31
+32 -32
+33 -33
+34 -34
+35 -35
+36 -36
+37 -37
+38 -38
+39 -39
+40 -40
+41 -41
+42 -42
+43 -43
+44 -44
+45 -45
+46 -46
+47 -47
+48 -48
+49 -49
+50 -50
+51 -51
+52 -52
+53 -53
+54 -54
+55 -55
+56 -56
+57 -57
+58 -58
+59 -59
+60 -60
+61 -61
+62 -62
+63 -63
+64 -64
+65 -65
+66 -66
+67 -67
+68 -68
+69 -69
+70 -70
+71 -71
+72 -72
+73 -73
+74 -74
+75 -75
+76 -76
+77 -77
+78 -78
+79 -79
+80 -80
+81 -81
+82 -82
+83 -83
+84 -84
+85 -85
+86 -86
+87 -87
+88 -88
+89 -89
+90 -90
+91 -91
+92 -92
+93 -93
+94 -94
+95 -95
EOF
